Comps = {frontend0, frontend1, backend0, backend1, database0, database1};
mustComps = {frontend0, frontend1};
Flavs = {tiny, medium, large};
Nodes = {n1, n2, n3};
CRes = {CPU, RAM, storage, bwIn, bwOut};
NRes = {ssl, fwall, encr, avail, latency};
Flav = [{medium, large}, {medium, large}, {tiny, medium, large}, {tiny, medium, large}, {large}, {large}];
Uses = array2d(CompFlavs, CompFlavs, [
	0,0,0,0,0,0,0,1,0,0,0,0,
	0,0,0,0,0,0,0,1,0,0,0,0,
	0,0,0,0,0,0,0,1,0,0,0,0,
	0,0,0,0,0,0,0,1,0,0,0,0,
	0,0,0,0,0,0,0,0,0,0,0,0,
	0,0,0,0,0,0,0,0,0,1,0,0,
	0,0,0,0,0,0,0,0,0,1,0,0,
	0,0,0,0,0,0,0,0,0,0,0,0,
	0,0,0,0,0,0,1,0,0,0,0,0,
	0,0,0,0,0,0,1,0,0,0,0,0,
	0,0,0,0,0,0,0,0,0,0,0,0,
	0,0,0,0,0,0,0,0,0,0,0,0,
]);
mayUse = array2d(Comps, CompFlavs, [
	0,0,0,0,0,0,0,0,0,0,0,0,
	0,0,0,0,0,0,0,0,0,0,0,0,
	0,0,0,0,0,0,0,0,1,1,0,0,
	1,1,1,1,0,1,1,0,0,0,0,0,
	0,0,0,0,0,0,0,0,0,0,0,0,
	0,0,0,0,0,0,0,0,0,0,0,0,
]);
MIN_RBOUNDS = 0;
MAX_RBOUNDS = 1000000;

worstBounds = [0, 0, 0, 0, 0, 0, 0, 0, 0, MAX_RBOUNDS];
bestBounds = [MAX_RBOUNDS - i | i in worstBounds];

comReq = array2d(CompFlavs, Res, [
  2, 304, 386, 309, 214, 1, 0, 1, 95, MAX_RBOUNDS,
  2, 366, 484, 972, 959, 0, 0, 0, 97, MAX_RBOUNDS,
  2, 484, 490, 738, 821, 0, 1, 1, 97, MAX_RBOUNDS,
  2, 202, 280, 247, 918, 0, 0, 1, 97, MAX_RBOUNDS,
  2, 218, 500, 686, 407, 1, 1, 0, 96, MAX_RBOUNDS,
  8, 349, 260, 443, 215, 1, 1, 1, 97, MAX_RBOUNDS,
  4, 488, 450, 836, 772, 0, 0, 1, 95, MAX_RBOUNDS,
  4, 461, 353, 814, 563, 1, 1, 0, 95, MAX_RBOUNDS,
  2, 286, 378, 378, 423, 0, 1, 0, 96, MAX_RBOUNDS,
  2, 494, 252, 634, 495, 0, 1, 1, 97, MAX_RBOUNDS,
  8, 228, 223, 653, 709, 0, 0, 1, 97, MAX_RBOUNDS,
  2, 339, 217, 947, 581, 1, 1, 1, 95, MAX_RBOUNDS,
]);

nodeCap = array2d(Nodes0, Res, [bestBounds[r] | r in Res] ++ [
  32, 78753, 253558, 19573, 21271, 1, 1, 1, 98, 0,
  16, 42953, 624545, 18704, 24970, 1, 0, 1, 99, 0,
  8, 25418, 68149, 24293, 14348, 1, 1, 1, 98, 0,
]);

cost = array2d(Nodes0, Res, [
  0, 0, 0, 0, 0, 0, 0, 0, 0, 0, % no node
  17, 5, 23, 0, 0, 0, 0, 0, 0, 0,
  12, 5, 15, 0, 0, 0, 0, 0, 0, 0,
  11, 10, 15, 0, 0, 0, 0, 0, 0, 0,
]);

carb = array2d(Nodes0, Res, [
  0, 0, 0, 0, 0, 0, 0, 0, 0, 0, % no node
  36, 47, 27, 0, 0, 0, 0, 0, 0, 0,
  36, 49, 17, 0, 0, 0, 0, 0, 0, 0,
  1, 35, 25, 0, 0, 0, 0, 0, 0, 0,
]);

costBudget = 39895;
carbBudget = 50991;

depReq = array4d(Comps, Flavs, Comps, Res, [
  if c1 = frontend0 /\ c2 = backend0 /\ r = N(avail) then
    96
  elseif c1 = frontend0 /\ c2 = backend1 /\ r = N(avail) then
    95
  elseif c1 = frontend1 /\ c2 = backend1 /\ r = N(avail) then
    95
  else
    worstBounds[r]
  endif | c1 in Comps, i in Flavs, c2 in Comps, r in Res]);

linkCap = array3d(Nodes0, Nodes0, Res, [
  if ni = 0 \/ nj = 0 then
    bestBounds[r]
  elseif ni = nj /\ r = N(avail) then
    nodeCap[ni,r]
  elseif {ni, nj} = {n1, n3} /\ r = N(avail) then
    99
  elseif {ni, nj} = {n1, n2} /\ r = N(avail) then
    98
  elseif {ni, nj} = {n2, n3} /\ r = N(avail) then
    99
  else
    worstBounds[r]
  endif | ni in Nodes0, nj in Nodes0, r in Res]);

imp = array2d(Comps, Flavs, [
  1, 2, 7,
  5, 8, 9,
  5, 6, 9,
  2, 8, 9,
  1, 3, 4,
  3, 4, 7,
]);

